cases/case3_tnep.m
[info | PowerModels]: extending matpower format with data: ne_branch 3x15
[info | PowerModels]: removing 3 cost terms from generator 3: Float64[]

******************************************************************************
This program contains Ipopt, a library for large-scale nonlinear optimization.
 Ipopt is released as open source code under the Eclipse Public License (EPL).
         For more information visit http://projects.coin-or.org/Ipopt
******************************************************************************

This is Ipopt version 3.13.2, running with linear solver mumps.
NOTE: Other linear solvers might be more efficient (see Ipopt documentation).

Number of nonzeros in equality constraint Jacobian...:       30
Number of nonzeros in inequality constraint Jacobian.:        8
Number of nonzeros in Lagrangian Hessian.............:       46

Total number of variables............................:       15
                     variables with only lower bounds:        0
                variables with lower and upper bounds:       12
                     variables with only upper bounds:        0
Total number of equality constraints.................:       11
Total number of inequality constraints...............:        4
        inequality constraints with only lower bounds:        1
   inequality constraints with lower and upper bounds:        0
        inequality constraints with only upper bounds:        3

iter    objective    inf_pr   inf_du lg(mu)  ||d||  lg(rg) alpha_du alpha_pr  ls
   0  6.3949934e+00 1.09e+00 1.04e+02  -1.0 0.00e+00    -  0.00e+00 0.00e+00   0
   1  2.9353245e+03 9.50e-01 1.17e+02  -1.0 1.28e+00  -2.0 8.33e-03 1.00e+00h  1
   2  2.9356464e+03 9.50e-01 1.12e+00  -1.0 7.11e-02  -1.6 9.90e-01 1.00e+00h  1
   3  2.9357155e+03 9.50e-01 1.06e-02  -1.0 4.98e-03  -1.1 9.91e-01 1.00e+00h  1
   4  2.9355147e+03 9.50e-01 7.23e-03  -1.7 2.12e-02  -1.6 1.00e+00 1.00e+00h  1
   5  2.9353520e+03 9.50e-01 3.46e-04  -1.7 1.92e-02  -2.1 1.00e+00 1.00e+00h  1
   6  2.9353638e+03 9.50e-01 2.74e-06  -1.7 1.07e-03  -2.6 1.00e+00 1.00e+00h  1
   7r 2.9353638e+03 9.50e-01 9.99e+02  -0.0 0.00e+00  -3.1 0.00e+00 4.77e-07R 22
   8r 2.9390719e+03 9.50e-01 9.04e+02  -0.0 9.15e-01    -  1.00e+00 9.52e-02f  2
   9r 2.9710486e+03 9.50e-01 2.99e-02  -0.0 9.54e-02    -  1.00e+00 1.00e+00f  1
iter    objective    inf_pr   inf_du lg(mu)  ||d||  lg(rg) alpha_du alpha_pr  ls
  10r 2.9509268e+03 9.50e-01 1.31e-01  -2.1 4.73e-02    -  9.34e-01 9.99e-01f  1
  11r 2.9439206e+03 9.50e-01 1.08e-02  -3.2 2.40e-02    -  9.95e-01 1.00e+00f  1
  12r 2.9367853e+03 9.50e-01 2.86e-03  -4.8 4.09e-02    -  9.46e-01 1.00e+00h  1
  13r 2.9361397e+03 9.50e-01 1.67e-05  -4.8 1.11e-02    -  1.00e+00 1.00e+00h  1
  14r 2.9356965e+03 9.50e-01 1.58e-04  -7.2 2.60e-02    -  8.26e-01 1.00e+00h  1
  15r 2.9356694e+03 9.50e-01 2.87e-07  -7.2 2.57e-03    -  1.00e+00 1.00e+00h  1
  16r 2.9354892e+03 9.50e-01 6.63e-08  -7.2 1.82e-02    -  1.00e+00 1.00e+00h  1
  17r 2.9354316e+03 9.50e-01 8.18e-09  -7.2 6.59e-03    -  1.00e+00 1.00e+00h  1
  18r 2.9354215e+03 9.50e-01 2.67e-10  -7.2 1.20e-03    -  1.00e+00 1.00e+00h  1
  19r 2.9353772e+03 9.50e-01 3.57e-07  -9.0 5.02e-03    -  9.85e-01 1.00e+00h  1
iter    objective    inf_pr   inf_du lg(mu)  ||d||  lg(rg) alpha_du alpha_pr  ls
  20r 2.9353743e+03 9.50e-01 1.11e-10  -9.0 3.64e-04    -  1.00e+00 1.00e+00h  1
  21r 2.9353726e+03 9.50e-01 9.95e-13  -9.0 2.04e-04    -  1.00e+00 1.00e+00h  1

Number of Iterations....: 21

                                   (scaled)                 (unscaled)
Objective...............:   5.8707451151867417e+02    2.9353725575933709e+03
Dual infeasibility......:   4.8404755026850836e+02    2.4202377513425417e+03
Constraint violation....:   9.4999999999999996e-01    9.4999999999999996e-01
Complementarity.........:   9.0909110326797414e-10    4.5454555163398702e-09
Overall NLP error.......:   4.8404755026850836e+02    2.4202377513425417e+03


Number of objective function evaluations             = 48
Number of objective gradient evaluations             = 9
Number of equality constraint evaluations            = 48
Number of inequality constraint evaluations          = 48
Number of equality constraint Jacobian evaluations   = 24
Number of inequality constraint Jacobian evaluations = 24
Number of Lagrangian Hessian evaluations             = 22
Total CPU secs in IPOPT (w/o function evaluations)   =      2.406
Total CPU secs in NLP function evaluations           =      1.661

EXIT: Converged to a point of local infeasibility. Problem may be infeasible.
Time to Solution........:4.857614994049072
Final cost..............:
